 200 19 
 6 82 39 19 36 88 90 47 20 28 86 32 
 89 52 41 62 4 23 14 
 17 
 1 2 3 4 5 6 7 8 9 10 11 13 
 14 15 16 17 18 
 6 
 5 8 9 10 15 18 
 13 
 2 4 5 7 9 10 11 12 14 15 17 18 
 19 
 2 
 15 19 
 8 
 1 2 4 7 10 14 16 19 
 10 
 1 3 6 7 8 10 11 12 15 17 
 19 
 1 2 3 4 5 6 7 8 9 10 11 12 
 13 14 15 16 17 18 19 
 3 
 7 15 19 
 15 
 1 2 3 4 5 6 8 9 10 11 14 15 
 17 18 19 
 17 
 1 2 3 4 6 7 8 9 10 12 13 14 
 15 16 17 18 19 
 16 
 3 4 6 7 8 9 10 11 12 13 14 15 
 16 17 18 19 
 14 
 1 4 6 7 10 11 12 13 14 15 16 17 
 18 19 
 7 
 2 4 9 10 13 14 19 
 13 
 2 3 4 6 9 10 11 13 14 15 16 18 
 19 
 5 
 1 11 12 15 17 
 12 
 1 2 4 6 7 8 12 13 14 15 17 18 
 16 
 1 2 3 6 7 8 10 11 12 13 14 15 
 16 17 18 19 
 2 
 1 3 
 9 
 5 8 9 10 11 12 14 15 18 
 18 
 1 2 3 4 5 7 8 9 10 11 12 13 
 14 15 16 17 18 19 
 15 
 2 3 4 5 6 7 9 10 11 12 13 16 
 17 18 19 
 13 
 1 3 4 5 6 8 9 10 13 15 16 17 
 19 
 3 
 9 13 14 
 3 
 2 10 13 
 17 
 1 2 3 4 5 6 7 8 9 10 11 13 
 15 16 17 18 19 
 4 
 2 3 13 16 
 14 
 1 2 3 5 8 9 11 12 13 15 16 17 
 18 19 
 17 
 1 2 3 4 5 6 7 8 9 10 13 14 
 15 16 17 18 19 
 7 
 2 3 8 11 12 16 19 
 2 
 1 13 
 14 
 1 4 5 6 7 8 9 10 12 13 14 16 
 17 19 
 18 
 1 2 3 4 5 6 7 8 9 11 12 13 
 14 15 16 17 18 19 
 9 
 4 8 10 11 12 16 17 18 19 
 16 
 1 2 4 5 7 9 10 11 12 13 14 15 
 16 17 18 19 
 18 
 1 2 3 4 5 6 7 8 9 10 11 12 
 13 15 16 17 18 19 
 2 
 4 17 
 7 
 1 4 7 8 10 11 13 
 6 
 1 4 5 10 17 19 
 2 
 9 16 
 2 
 7 8 
 13 
 1 2 3 4 5 10 11 12 13 14 15 17 
 19 
 3 
 12 18 19 
 7 
 2 3 6 8 9 18 19 
 2 
 5 13 
 12 
 1 2 3 4 5 6 8 9 10 11 14 16 
 11 
 2 3 6 7 8 9 10 11 12 14 19 
 3 
 9 14 18 
 7 
 4 6 8 11 16 17 19 
 12 
 1 3 4 7 8 9 10 13 15 17 18 19 
 9 
 2 4 7 8 10 11 15 18 19 
 5 
 5 7 8 16 18 
 12 
 1 2 5 6 7 9 10 11 13 14 15 17 
 3 
 9 12 18 
 11 
 1 2 3 6 8 9 10 11 12 13 19 
 12 
 1 2 3 6 8 9 10 11 14 15 16 18 
 18 
 2 3 4 5 6 7 8 9 10 11 12 13 
 14 15 16 17 18 19 
 8 
 4 5 6 7 9 10 15 18 
 11 
 2 3 5 6 7 10 11 13 15 18 19 
 4 
 1 11 16 19 
 7 
 5 9 10 13 14 15 16 
 8 
 1 2 9 12 13 15 17 18 
 16 
 1 4 5 6 7 8 9 10 11 12 14 15 
 16 17 18 19 
 16 
 1 2 3 4 5 6 7 8 9 10 11 12 
 13 15 16 19 
 9 
 1 3 5 6 8 9 11 13 19 
 13 
 1 4 5 6 7 9 11 13 14 15 16 17 
 18 
 11 
 1 2 3 6 7 10 12 13 15 16 17 
 5 
 12 13 15 16 17 
 12 
 1 2 3 4 5 6 7 8 10 12 13 16 
 16 
 1 2 3 5 6 7 8 9 10 12 13 14 
 16 17 18 19 
 4 
 3 11 12 19 
 14 
 1 3 5 6 7 8 9 10 11 13 16 17 
 18 19 
 7 
 3 4 8 9 12 14 19 
 19 
 1 2 3 4 5 6 7 8 9 10 11 12 
 13 14 15 16 17 18 19 
 5 
 6 8 10 15 18 
 12 
 1 3 4 5 7 11 12 13 14 17 18 19 
 16 
 1 2 3 4 6 7 8 9 10 12 13 14 
 15 16 17 18 
 7 
 2 7 10 11 14 15 17 
 2 
 10 14 
 10 
 1 3 4 5 6 9 11 13 16 17 
 5 
 1 5 6 12 14 
 2 
 6 12 
 11 
 2 4 5 6 7 10 12 14 16 17 18 
 3 
 4 5 7 
 18 
 1 2 3 4 5 6 7 8 9 10 11 12 
 13 14 16 17 18 19 
 15 
 1 2 3 4 5 6 7 8 10 11 12 13 
 16 17 18 
 8 
 5 6 9 12 13 15 17 19 
 10 
 1 2 5 6 8 9 11 12 17 18 
 12 
 1 2 8 9 10 11 13 14 16 17 18 19 
 19 
 1 2 3 4 5 6 7 8 9 10 11 12 
 13 14 15 16 17 18 19 
 16 
 1 3 4 6 7 8 10 11 12 13 14 15 
 16 17 18 19 
 11 
 1 2 4 7 8 10 12 13 17 18 19 
 14 
 3 4 5 6 7 8 9 10 11 13 16 17 
 18 19 
 2 
 7 19 
 7 
 4 7 9 12 14 15 17 
 19 
 1 2 3 4 5 6 7 8 9 10 11 12 
 13 14 15 16 17 18 19 
 7 
 1 3 4 11 15 17 19 
 13 
 1 4 6 7 10 11 12 13 14 15 16 17 
 19 
 5 
 7 8 9 10 19 
 6 
 5 6 7 9 14 17 
 12 
 1 2 4 5 7 8 9 10 13 15 16 18 
 17 
 1 2 3 4 5 6 7 8 9 10 11 12 
 13 14 15 18 19 
 14 
 4 5 6 7 8 10 11 12 14 15 16 17 
 18 19 
 19 
 1 2 3 4 5 6 7 8 9 10 11 12 
 13 14 15 16 17 18 19 
 2 
 18 19 
 6 
 3 5 8 12 17 18 
 2 
 16 18 
 9 
 1 4 6 9 10 11 12 17 19 
 5 
 3 9 11 14 19 
 16 
 1 2 3 4 5 6 8 9 10 11 12 13 
 14 17 18 19 
 10 
 3 4 6 7 8 10 11 12 16 19 
 5 
 1 3 4 9 13 
 2 
 10 18 
 18 
 1 2 3 4 5 6 7 8 9 10 11 12 
 13 14 15 17 18 19 
 8 
 2 7 9 11 13 15 17 18 
 8 
 1 7 8 9 12 14 16 17 
 15 
 2 3 4 6 7 8 9 10 12 13 15 16 
 17 18 19 
 3 
 4 5 15 
 8 
 1 6 10 11 13 15 16 19 
 4 
 10 11 12 13 
 6 
 1 6 7 12 16 17 
 10 
 3 4 5 6 9 11 12 13 14 19 
 6 
 2 3 9 13 15 18 
 13 
 2 3 4 7 8 10 11 12 13 14 15 17 
 18 
 12 
 3 4 5 7 9 10 11 13 14 16 18 19 
 5 
 7 8 9 12 18 
 9 
 2 3 5 6 8 10 14 16 17 
 18 
 1 2 4 5 6 7 8 9 10 11 12 13 
 14 15 16 17 18 19 
 10 
 1 2 3 7 11 12 13 14 16 17 
 10 
 1 2 3 4 7 12 13 14 15 16 
 4 
 2 4 11 15 
 9 
 2 3 7 9 10 13 14 15 18 
 6 
 1 2 7 8 10 11 
 12 
 1 2 4 5 8 10 13 14 16 17 18 19 
 9 
 2 3 9 11 12 13 14 15 17 
 14 
 1 2 4 5 6 7 8 12 13 14 15 16 
 17 19 
 12 
 2 3 4 6 7 11 12 13 14 15 16 19 
 4 
 2 4 16 17 
 5 
 7 9 10 12 16 
 5 
 6 13 15 17 18 
 12 
 2 4 5 6 9 10 12 14 15 16 17 19 
 8 
 1 5 6 7 8 12 13 16 
 16 
 1 2 3 4 5 7 8 9 10 11 13 15 
 16 17 18 19 
 8 
 3 4 5 6 13 15 18 19 
 11 
 1 2 4 5 6 8 10 13 14 15 18 
 19 
 1 2 3 4 5 6 7 8 9 10 11 12 
 13 14 15 16 17 18 19 
 5 
 2 8 9 10 13 
 17 
 1 2 4 6 7 8 9 10 11 12 13 14 
 15 16 17 18 19 
 19 
 1 2 3 4 5 6 7 8 9 10 11 12 
 13 14 15 16 17 18 19 
 15 
 1 3 4 5 6 7 8 9 10 13 14 16 
 17 18 19 
 15 
 1 2 3 4 5 6 7 9 11 12 13 15 
 16 18 19 
 11 
 1 2 7 8 9 10 13 14 16 17 18 
 17 
 1 2 3 4 5 6 7 8 9 11 12 13 
 14 15 16 17 19 
 17 
 1 2 3 4 5 8 9 10 11 12 13 14 
 15 16 17 18 19 
 16 
 2 3 4 5 6 7 9 10 11 12 13 14 
 16 17 18 19 
 6 
 4 5 7 8 15 18 
 4 
 5 6 12 19 
 10 
 2 3 5 6 7 10 11 16 17 19 
 6 
 3 5 6 9 16 17 
 14 
 1 2 3 6 7 8 9 12 13 14 15 16 
 17 19 
 4 
 10 11 12 16 
 17 
 1 3 4 5 6 7 8 9 10 11 12 14 
 15 16 17 18 19 
 18 
 2 3 4 5 6 7 8 9 10 11 12 13 
 14 15 16 17 18 19 
 19 
 1 2 3 4 5 6 7 8 9 10 11 12 
 13 14 15 16 17 18 19 
 10 
 3 8 10 11 13 14 15 16 17 19 
 4 
 7 9 10 14 
 7 
 1 10 11 12 14 18 19 
 5 
 3 8 11 12 17 
 14 
 1 2 3 5 6 9 10 11 12 14 16 17 
 18 19 
 8 
 1 3 7 8 9 14 15 17 
 8 
 5 6 12 13 16 17 18 19 
 10 
 5 6 7 10 11 12 13 15 18 19 
 18 
 1 2 3 4 5 6 7 8 9 10 12 13 
 14 15 16 17 18 19 
 10 
 1 6 7 10 12 13 15 17 18 19 
 15 
 1 2 3 5 6 7 8 9 10 11 13 15 
 16 17 18 
 17 
 1 2 3 4 5 6 8 9 10 11 12 13 
 15 16 17 18 19 
 7 
 1 4 8 9 11 12 19 
 12 
 1 3 4 6 7 8 11 13 15 17 18 19 
 14 
 1 4 5 6 7 8 9 10 11 12 13 15 
 17 18 
 13 
 1 2 6 7 8 9 11 12 13 14 15 17 
 18 
 4 
 5 10 12 15 
 16 
 1 2 3 4 5 6 7 11 12 13 14 15 
 16 17 18 19 
 14 
 1 2 5 7 8 9 12 13 14 15 16 17 
 18 19 
 4 
 5 8 14 19 
 14 
 2 4 5 6 7 9 10 11 12 13 14 16 
 17 18 
 18 
 1 2 3 5 6 7 8 9 10 11 12 13 
 14 15 16 17 18 19 
 8 
 1 9 10 11 14 16 17 19 
 16 
 1 2 3 4 5 6 7 9 10 11 13 14 
 15 17 18 19 
 9 
 1 2 4 7 8 9 17 18 19 
 13 
 1 2 3 6 7 8 9 10 14 15 16 17 
 19 
 6 
 1 2 3 11 12 13 
 5 
 1 4 12 14 15 
 11 
 1 2 6 9 10 11 13 14 16 17 18 
 16 
 1 2 3 4 5 6 8 9 11 12 14 15 
 16 17 18 19 
 4 
 3 8 10 18 
 19 
 1 2 3 4 5 6 7 8 9 10 11 12 
 13 14 15 16 17 18 19 
 10 
 1 4 6 7 9 15 16 17 18 19 
 10 
 2 3 6 9 12 14 15 16 17 19 
 15 
 3 4 6 7 8 9 10 11 12 13 15 16 
 17 18 19 
 17 
 1 3 4 6 7 8 9 10 11 12 13 14 
 15 16 17 18 19 
 4 
 4 5 6 9 
 